100 20 100
7 73 2 91 43 16 98 37 89 55 21 37 8 1 47 38 74 47 67 4 19 84 49 93 61 68 54 18 8 6 35 67 31 37 58 74 6 56 63 95 64 37 84 72 38 32 62 64 79 29 68 50 66 18 44 79 86 50 49 46 56 85 13 87 74 72 14 80 80 29 27 44 66 64 16 4 48 31 20 27 60 89 29 78 59 25 10 97 76 59 43 84 96 56 24 71 28 38 3 61 
